120 150

50
45
52
44
52
59
55
49
57
44
40
52
60
41
49
49
46
55
40
40
40
55
45
50
40
52
59
40
54
55
41
52
52
46
50
50
50
44
46
60
55
49
46
40
54
57
51
42
52
55
43
40
55
56
46
48
40
52
59
41
50
40
40
40
54
50
46
40
40
41
51
50
49
48
49
53
40
55
55
42
49
60
60
41
59
54
45
51
50
47
54
42
54
45
45
60
54
44
52
41
41
42
43
50
57
50
52
52
52
46
44
55
53
60
47
52
51
55
55
40